28
1 0 1
2 0 1
2 1 2
3 0 3
3 1 2
3 2 5
4 0 5
4 1 2
4 2 3
4 3 5
5 0 4
5 1 3
5 2 2
5 3 4
5 4 1
6 0 1
6 1 4
6 2 2
6 3 4
6 4 2
6 5 2
7 0 1
7 1 2
7 2 1
7 3 2
7 4 4
7 5 1
7 6 2
8 0 5
8 1 2
8 2 4
8 3 5
8 4 1
8 5 3
8 6 3
8 7 3
9 0 3
9 1 3
9 2 5
9 3 3
9 4 3
9 5 4
9 6 1
9 7 2
9 8 4
10 0 4
10 1 1
10 2 5
10 3 1
10 4 3
10 5 1
10 6 5
10 7 2
10 8 4
10 9 5
11 0 4
11 1 2
11 2 2
11 3 2
11 4 2
11 5 1
11 6 5
11 7 4
11 8 4
11 9 5
11 10 4
12 0 5
12 1 5
12 2 5
12 3 3
12 4 5
12 5 5
12 6 5
12 7 3
12 8 3
12 9 3
12 10 3
12 11 3
13 0 1
13 1 1
13 2 2
13 3 5
13 4 2
13 5 2
13 6 1
13 7 4
13 8 5
13 9 3
13 10 1
13 11 1
13 12 5
14 0 3
14 1 1
14 2 2
14 3 1
14 4 4
14 5 1
14 6 1
14 7 5
14 8 1
14 9 5
14 10 1
14 11 1
14 12 4
14 13 1
15 0 1
15 1 1
15 2 5
15 3 1
15 4 4
15 5 5
15 6 4
15 7 2
15 8 1
15 9 4
15 10 3
15 11 1
15 12 5
15 13 5
15 14 1
16 0 5
16 1 4
16 2 4
16 3 4
16 4 2
16 5 5
16 6 5
16 7 1
16 8 2
16 9 4
16 10 5
16 11 5
16 12 4
16 13 3
16 14 5
16 15 4
17 0 2
17 1 2
17 2 2
17 3 5
17 4 4
17 5 5
17 6 1
17 7 1
17 8 5
17 9 3
17 10 3
17 11 5
17 12 5
17 13 4
17 14 4
17 15 1
17 16 2
18 0 5
18 1 5
18 2 1
18 3 1
18 4 2
18 5 1
18 6 3
18 7 1
18 8 2
18 9 2
18 10 1
18 11 2
18 12 5
18 13 2
18 14 5
18 15 4
18 16 4
18 17 2
19 0 4
19 1 5
19 2 3
19 3 1
19 4 4
19 5 4
19 6 3
19 7 3
19 8 4
19 9 1
19 10 2
19 11 5
19 12 4
19 13 2
19 14 1
19 15 4
19 16 1
19 17 4
19 18 4
20 0 4
20 1 3
20 2 3
20 3 4
20 4 5
20 5 1
20 6 1
20 7 4
20 8 3
20 9 3
20 10 1
20 11 2
20 12 5
20 13 2
20 14 4
20 15 3
20 16 4
20 17 3
20 18 4
20 19 3
21 0 3
21 1 3
21 2 1
21 3 4
21 4 2
21 5 2
21 6 1
21 7 1
21 8 5
21 9 3
21 10 5
21 11 3
21 12 1
21 13 3
21 14 5
21 15 1
21 16 4
21 17 2
21 18 1
21 19 2
21 20 5
22 0 3
22 1 5
22 2 4
22 3 1
22 4 1
22 5 2
22 6 2
22 7 2
22 8 4
22 9 5
22 10 2
22 11 5
22 12 5
22 13 4
22 14 3
22 15 3
22 16 1
22 17 1
22 18 3
22 19 5
22 20 3
22 21 4
23 0 2
23 1 2
23 2 3
23 3 3
23 4 2
23 5 1
23 6 3
23 7 4
23 8 1
23 9 4
23 10 4
23 11 5
23 12 2
23 13 2
23 14 4
23 15 2
23 16 5
23 17 2
23 18 5
23 19 5
23 20 5
23 21 4
23 22 2
24 0 1
24 1 3
24 2 1
24 3 1
24 4 3
24 5 2
24 6 3
24 7 1
24 8 5
24 9 3
24 10 5
24 11 3
24 12 1
24 13 5
24 14 4
24 15 5
24 16 1
24 17 4
24 18 4
24 19 3
24 20 5
24 21 2
24 22 5
24 23 4
25 0 1
25 1 4
25 2 1
25 3 3
25 4 5
25 5 3
25 6 4
25 7 2
25 8 1
25 9 2
25 10 3
25 11 4
25 12 4
25 13 3
25 14 2
25 15 2
25 16 2
25 17 5
25 18 4
25 19 5
25 20 3
25 21 3
25 22 5
25 23 4
25 24 5
26 0 3
26 1 1
26 2 2
26 3 3
26 4 3
26 5 4
26 6 2
26 7 4
26 8 1
26 9 5
26 10 4
26 11 3
26 12 1
26 13 5
26 14 5
26 15 4
26 16 4
26 17 1
26 18 5
26 19 2
26 20 1
26 21 3
26 22 5
26 23 1
26 24 3
26 25 4
27 0 5
27 1 3
27 2 5
27 3 5
27 4 1
27 5 4
27 6 5
27 7 3
27 8 5
27 9 2
27 10 2
27 11 2
27 12 2
27 13 1
27 14 3
27 15 5
27 16 4
27 17 3
27 18 3
27 19 3
27 20 3
27 21 5
27 22 3
27 23 4
27 24 2
27 25 2
27 26 4
